p cnf 510 1732
c p weight 204 -1 0
c p weight -204 1 0
c p weight 206 6.12323399573676603586882014729198302312846062338790031898128063403419218957424163818359375E-17 0
c p weight -206 1 0
c p weight 207 1 0
c p weight -207 1 0
c p weight 208 -1 0
c p weight -208 1 0
c p weight 210 -1 0
c p weight -210 1 0
c p weight 213 -1 0
c p weight -213 1 0
c p weight 216 -1 0
c p weight -216 1 0
c p weight 219 -1 0
c p weight -219 1 0
c p weight 222 -1 0
c p weight -222 1 0
c p weight 225 -1 0
c p weight -225 1 0
c p weight 228 -1 0
c p weight -228 1 0
c p weight 231 -1 0
c p weight -231 1 0
c p weight 234 -1 0
c p weight -234 1 0
c p weight 237 -1 0
c p weight -237 1 0
c p weight 240 -1 0
c p weight -240 1 0
c p weight 243 -1 0
c p weight -243 1 0
c p weight 246 -1 0
c p weight -246 1 0
c p weight 249 -1 0
c p weight -249 1 0
c p weight 252 -1 0
c p weight -252 1 0
c p weight 255 -1 0
c p weight -255 1 0
c p weight 258 -1 0
c p weight -258 1 0
c p weight 261 -1 0
c p weight -261 1 0
c p weight 264 -1 0
c p weight -264 1 0
c p weight 267 -1 0
c p weight -267 1 0
c p weight 270 -1 0
c p weight -270 1 0
c p weight 273 -1 0
c p weight -273 1 0
c p weight 276 -1 0
c p weight -276 1 0
c p weight 279 -1 0
c p weight -279 1 0
c p weight 282 -1 0
c p weight -282 1 0
c p weight 285 -1 0
c p weight -285 1 0
c p weight 288 -1 0
c p weight -288 1 0
c p weight 291 -1 0
c p weight -291 1 0
c p weight 294 -1 0
c p weight -294 1 0
c p weight 297 -1 0
c p weight -297 1 0
c p weight 300 -1 0
c p weight -300 1 0
c p weight 303 -1 0
c p weight -303 1 0
c p weight 306 -1 0
c p weight -306 1 0
c p weight 309 -1 0
c p weight -309 1 0
c p weight 312 -1 0
c p weight -312 1 0
c p weight 315 -1 0
c p weight -315 1 0
c p weight 318 -1 0
c p weight -318 1 0
c p weight 321 -1 0
c p weight -321 1 0
c p weight 324 -1 0
c p weight -324 1 0
c p weight 327 -1 0
c p weight -327 1 0
c p weight 330 -1 0
c p weight -330 1 0
c p weight 333 -1 0
c p weight -333 1 0
c p weight 336 -1 0
c p weight -336 1 0
c p weight 339 -1 0
c p weight -339 1 0
c p weight 342 -1 0
c p weight -342 1 0
c p weight 345 -1 0
c p weight -345 1 0
c p weight 348 -1 0
c p weight -348 1 0
c p weight 351 -1 0
c p weight -351 1 0
c p weight 354 -1 0
c p weight -354 1 0
c p weight 357 -1 0
c p weight -357 1 0
c p weight 360 -1 0
c p weight -360 1 0
c p weight 363 -1 0
c p weight -363 1 0
c p weight 366 -1 0
c p weight -366 1 0
c p weight 369 -1 0
c p weight -369 1 0
c p weight 372 -1 0
c p weight -372 1 0
c p weight 375 -1 0
c p weight -375 1 0
c p weight 378 -1 0
c p weight -378 1 0
c p weight 381 -1 0
c p weight -381 1 0
c p weight 384 -1 0
c p weight -384 1 0
c p weight 387 -1 0
c p weight -387 1 0
c p weight 390 -1 0
c p weight -390 1 0
c p weight 393 -1 0
c p weight -393 1 0
c p weight 396 -1 0
c p weight -396 1 0
c p weight 399 -1 0
c p weight -399 1 0
c p weight 402 -1 0
c p weight -402 1 0
c p weight 405 -1 0
c p weight -405 1 0
c p weight 408 -1 0
c p weight -408 1 0
c p weight 411 -1 0
c p weight -411 1 0
c p weight 414 -1 0
c p weight -414 1 0
c p weight 417 -1 0
c p weight -417 1 0
c p weight 420 -1 0
c p weight -420 1 0
c p weight 423 -1 0
c p weight -423 1 0
c p weight 426 -1 0
c p weight -426 1 0
c p weight 429 -1 0
c p weight -429 1 0
c p weight 432 -1 0
c p weight -432 1 0
c p weight 435 -1 0
c p weight -435 1 0
c p weight 438 -1 0
c p weight -438 1 0
c p weight 441 -1 0
c p weight -441 1 0
c p weight 444 -1 0
c p weight -444 1 0
c p weight 447 -1 0
c p weight -447 1 0
c p weight 450 -1 0
c p weight -450 1 0
c p weight 453 -1 0
c p weight -453 1 0
c p weight 456 -1 0
c p weight -456 1 0
c p weight 459 -1 0
c p weight -459 1 0
c p weight 462 -1 0
c p weight -462 1 0
c p weight 465 -1 0
c p weight -465 1 0
c p weight 468 -1 0
c p weight -468 1 0
c p weight 471 -1 0
c p weight -471 1 0
c p weight 474 -1 0
c p weight -474 1 0
c p weight 477 -1 0
c p weight -477 1 0
c p weight 480 -1 0
c p weight -480 1 0
c p weight 483 -1 0
c p weight -483 1 0
c p weight 486 -1 0
c p weight -486 1 0
c p weight 489 -1 0
c p weight -489 1 0
c p weight 492 -1 0
c p weight -492 1 0
c p weight 495 -1 0
c p weight -495 1 0
c p weight 498 -1 0
c p weight -498 1 0
c p weight 501 -1 0
c p weight -501 1 0
c p weight 504 -1 0
c p weight -504 1 0
c p weight 507 -1 0
c p weight -507 1 0
c p weight 510 -1 0
c p weight -510 1 0
-201 0
-199 0
-197 0
-195 0
-193 0
-191 0
-189 0
-187 0
-185 0
-183 0
-181 0
-179 0
-177 0
-175 0
-173 0
-171 0
-169 0
-167 0
-165 0
-163 0
-161 0
-159 0
-157 0
-155 0
-153 0
-151 0
-149 0
-147 0
-145 0
-143 0
-141 0
-139 0
-137 0
-135 0
-133 0
-131 0
-129 0
-127 0
-125 0
-123 0
-121 0
-119 0
-117 0
-115 0
-113 0
-111 0
-109 0
-107 0
-105 0
-103 0
-101 0
-99 0
-97 0
-95 0
-93 0
-91 0
-89 0
-87 0
-85 0
-83 0
-81 0
-79 0
-77 0
-75 0
-73 0
-71 0
-69 0
-67 0
-65 0
-63 0
-61 0
-59 0
-57 0
-55 0
-53 0
-51 0
-49 0
-47 0
-45 0
-43 0
-41 0
-39 0
-37 0
-35 0
-33 0
-31 0
-29 0
-27 0
-25 0
-23 0
-21 0
-19 0
-17 0
-15 0
-13 0
-11 0
-9 0
-7 0
-5 0
-3 0
-1 0
203 201 -202 0
203 -201 202 0
-203 201 202 0
-203 -201 -202 0
-204 201 0
-204 202 0
204 -201 -202 0
205 -201 203 0
-205 201 203 0
-206 203 0
205 -206 -201 0
-205 -206 201 0
205 206 201 -203 0
-205 206 -201 -203 0
-207 203 0
205 -207 201 0
-205 -207 -201 0
205 207 -201 -203 0
-205 207 201 -203 0
-208 205 0
-208 203 0
-208 -201 0
208 -205 201 -203 0
209 205 -203 0
209 -205 203 0
-209 205 203 0
-209 -205 -203 0
-210 205 0
-210 203 0
210 -205 -203 0
211 205 -199 0
211 -205 199 0
-211 205 199 0
-211 -205 -199 0
212 209 -200 0
212 -209 200 0
-212 209 200 0
-212 -209 -200 0
-213 205 0
-213 200 0
-213 199 -209 0
-213 -199 209 0
213 -205 199 209 -200 0
213 -205 -199 -209 -200 0
214 211 -197 0
214 -211 197 0
-214 211 197 0
-214 -211 -197 0
215 200 -198 0
215 -200 198 0
-215 200 198 0
-215 -200 -198 0
-216 211 0
-216 198 0
-216 197 -200 0
-216 -197 200 0
216 -211 197 200 -198 0
216 -211 -197 -200 -198 0
217 214 -195 0
217 -214 195 0
-217 214 195 0
-217 -214 -195 0
218 198 -196 0
218 -198 196 0
-218 198 196 0
-218 -198 -196 0
-219 214 0
-219 196 0
-219 195 -198 0
-219 -195 198 0
219 -214 195 198 -196 0
219 -214 -195 -198 -196 0
220 217 -193 0
220 -217 193 0
-220 217 193 0
-220 -217 -193 0
221 196 -194 0
221 -196 194 0
-221 196 194 0
-221 -196 -194 0
-222 217 0
-222 194 0
-222 193 -196 0
-222 -193 196 0
222 -217 193 196 -194 0
222 -217 -193 -196 -194 0
223 220 -191 0
223 -220 191 0
-223 220 191 0
-223 -220 -191 0
224 194 -192 0
224 -194 192 0
-224 194 192 0
-224 -194 -192 0
-225 220 0
-225 192 0
-225 191 -194 0
-225 -191 194 0
225 -220 191 194 -192 0
225 -220 -191 -194 -192 0
226 223 -189 0
226 -223 189 0
-226 223 189 0
-226 -223 -189 0
227 192 -190 0
227 -192 190 0
-227 192 190 0
-227 -192 -190 0
-228 223 0
-228 190 0
-228 189 -192 0
-228 -189 192 0
228 -223 189 192 -190 0
228 -223 -189 -192 -190 0
229 226 -187 0
229 -226 187 0
-229 226 187 0
-229 -226 -187 0
230 190 -188 0
230 -190 188 0
-230 190 188 0
-230 -190 -188 0
-231 226 0
-231 188 0
-231 187 -190 0
-231 -187 190 0
231 -226 187 190 -188 0
231 -226 -187 -190 -188 0
232 229 -185 0
232 -229 185 0
-232 229 185 0
-232 -229 -185 0
233 188 -186 0
233 -188 186 0
-233 188 186 0
-233 -188 -186 0
-234 229 0
-234 186 0
-234 185 -188 0
-234 -185 188 0
234 -229 185 188 -186 0
234 -229 -185 -188 -186 0
235 232 -183 0
235 -232 183 0
-235 232 183 0
-235 -232 -183 0
236 186 -184 0
236 -186 184 0
-236 186 184 0
-236 -186 -184 0
-237 232 0
-237 184 0
-237 183 -186 0
-237 -183 186 0
237 -232 183 186 -184 0
237 -232 -183 -186 -184 0
238 235 -181 0
238 -235 181 0
-238 235 181 0
-238 -235 -181 0
239 184 -182 0
239 -184 182 0
-239 184 182 0
-239 -184 -182 0
-240 235 0
-240 182 0
-240 181 -184 0
-240 -181 184 0
240 -235 181 184 -182 0
240 -235 -181 -184 -182 0
241 238 -179 0
241 -238 179 0
-241 238 179 0
-241 -238 -179 0
242 182 -180 0
242 -182 180 0
-242 182 180 0
-242 -182 -180 0
-243 238 0
-243 180 0
-243 179 -182 0
-243 -179 182 0
243 -238 179 182 -180 0
243 -238 -179 -182 -180 0
244 241 -177 0
244 -241 177 0
-244 241 177 0
-244 -241 -177 0
245 180 -178 0
245 -180 178 0
-245 180 178 0
-245 -180 -178 0
-246 241 0
-246 178 0
-246 177 -180 0
-246 -177 180 0
246 -241 177 180 -178 0
246 -241 -177 -180 -178 0
247 244 -175 0
247 -244 175 0
-247 244 175 0
-247 -244 -175 0
248 178 -176 0
248 -178 176 0
-248 178 176 0
-248 -178 -176 0
-249 244 0
-249 176 0
-249 175 -178 0
-249 -175 178 0
249 -244 175 178 -176 0
249 -244 -175 -178 -176 0
250 247 -173 0
250 -247 173 0
-250 247 173 0
-250 -247 -173 0
251 176 -174 0
251 -176 174 0
-251 176 174 0
-251 -176 -174 0
-252 247 0
-252 174 0
-252 173 -176 0
-252 -173 176 0
252 -247 173 176 -174 0
252 -247 -173 -176 -174 0
253 250 -171 0
253 -250 171 0
-253 250 171 0
-253 -250 -171 0
254 174 -172 0
254 -174 172 0
-254 174 172 0
-254 -174 -172 0
-255 250 0
-255 172 0
-255 171 -174 0
-255 -171 174 0
255 -250 171 174 -172 0
255 -250 -171 -174 -172 0
256 253 -169 0
256 -253 169 0
-256 253 169 0
-256 -253 -169 0
257 172 -170 0
257 -172 170 0
-257 172 170 0
-257 -172 -170 0
-258 253 0
-258 170 0
-258 169 -172 0
-258 -169 172 0
258 -253 169 172 -170 0
258 -253 -169 -172 -170 0
259 256 -167 0
259 -256 167 0
-259 256 167 0
-259 -256 -167 0
260 170 -168 0
260 -170 168 0
-260 170 168 0
-260 -170 -168 0
-261 256 0
-261 168 0
-261 167 -170 0
-261 -167 170 0
261 -256 167 170 -168 0
261 -256 -167 -170 -168 0
262 259 -165 0
262 -259 165 0
-262 259 165 0
-262 -259 -165 0
263 168 -166 0
263 -168 166 0
-263 168 166 0
-263 -168 -166 0
-264 259 0
-264 166 0
-264 165 -168 0
-264 -165 168 0
264 -259 165 168 -166 0
264 -259 -165 -168 -166 0
265 262 -163 0
265 -262 163 0
-265 262 163 0
-265 -262 -163 0
266 166 -164 0
266 -166 164 0
-266 166 164 0
-266 -166 -164 0
-267 262 0
-267 164 0
-267 163 -166 0
-267 -163 166 0
267 -262 163 166 -164 0
267 -262 -163 -166 -164 0
268 265 -161 0
268 -265 161 0
-268 265 161 0
-268 -265 -161 0
269 164 -162 0
269 -164 162 0
-269 164 162 0
-269 -164 -162 0
-270 265 0
-270 162 0
-270 161 -164 0
-270 -161 164 0
270 -265 161 164 -162 0
270 -265 -161 -164 -162 0
271 268 -159 0
271 -268 159 0
-271 268 159 0
-271 -268 -159 0
272 162 -160 0
272 -162 160 0
-272 162 160 0
-272 -162 -160 0
-273 268 0
-273 160 0
-273 159 -162 0
-273 -159 162 0
273 -268 159 162 -160 0
273 -268 -159 -162 -160 0
274 271 -157 0
274 -271 157 0
-274 271 157 0
-274 -271 -157 0
275 160 -158 0
275 -160 158 0
-275 160 158 0
-275 -160 -158 0
-276 271 0
-276 158 0
-276 157 -160 0
-276 -157 160 0
276 -271 157 160 -158 0
276 -271 -157 -160 -158 0
277 274 -155 0
277 -274 155 0
-277 274 155 0
-277 -274 -155 0
278 158 -156 0
278 -158 156 0
-278 158 156 0
-278 -158 -156 0
-279 274 0
-279 156 0
-279 155 -158 0
-279 -155 158 0
279 -274 155 158 -156 0
279 -274 -155 -158 -156 0
280 277 -153 0
280 -277 153 0
-280 277 153 0
-280 -277 -153 0
281 156 -154 0
281 -156 154 0
-281 156 154 0
-281 -156 -154 0
-282 277 0
-282 154 0
-282 153 -156 0
-282 -153 156 0
282 -277 153 156 -154 0
282 -277 -153 -156 -154 0
283 280 -151 0
283 -280 151 0
-283 280 151 0
-283 -280 -151 0
284 154 -152 0
284 -154 152 0
-284 154 152 0
-284 -154 -152 0
-285 280 0
-285 152 0
-285 151 -154 0
-285 -151 154 0
285 -280 151 154 -152 0
285 -280 -151 -154 -152 0
286 283 -149 0
286 -283 149 0
-286 283 149 0
-286 -283 -149 0
287 152 -150 0
287 -152 150 0
-287 152 150 0
-287 -152 -150 0
-288 283 0
-288 150 0
-288 149 -152 0
-288 -149 152 0
288 -283 149 152 -150 0
288 -283 -149 -152 -150 0
289 286 -147 0
289 -286 147 0
-289 286 147 0
-289 -286 -147 0
290 150 -148 0
290 -150 148 0
-290 150 148 0
-290 -150 -148 0
-291 286 0
-291 148 0
-291 147 -150 0
-291 -147 150 0
291 -286 147 150 -148 0
291 -286 -147 -150 -148 0
292 289 -145 0
292 -289 145 0
-292 289 145 0
-292 -289 -145 0
293 148 -146 0
293 -148 146 0
-293 148 146 0
-293 -148 -146 0
-294 289 0
-294 146 0
-294 145 -148 0
-294 -145 148 0
294 -289 145 148 -146 0
294 -289 -145 -148 -146 0
295 292 -143 0
295 -292 143 0
-295 292 143 0
-295 -292 -143 0
296 146 -144 0
296 -146 144 0
-296 146 144 0
-296 -146 -144 0
-297 292 0
-297 144 0
-297 143 -146 0
-297 -143 146 0
297 -292 143 146 -144 0
297 -292 -143 -146 -144 0
298 295 -141 0
298 -295 141 0
-298 295 141 0
-298 -295 -141 0
299 144 -142 0
299 -144 142 0
-299 144 142 0
-299 -144 -142 0
-300 295 0
-300 142 0
-300 141 -144 0
-300 -141 144 0
300 -295 141 144 -142 0
300 -295 -141 -144 -142 0
301 298 -139 0
301 -298 139 0
-301 298 139 0
-301 -298 -139 0
302 142 -140 0
302 -142 140 0
-302 142 140 0
-302 -142 -140 0
-303 298 0
-303 140 0
-303 139 -142 0
-303 -139 142 0
303 -298 139 142 -140 0
303 -298 -139 -142 -140 0
304 301 -137 0
304 -301 137 0
-304 301 137 0
-304 -301 -137 0
305 140 -138 0
305 -140 138 0
-305 140 138 0
-305 -140 -138 0
-306 301 0
-306 138 0
-306 137 -140 0
-306 -137 140 0
306 -301 137 140 -138 0
306 -301 -137 -140 -138 0
307 304 -135 0
307 -304 135 0
-307 304 135 0
-307 -304 -135 0
308 138 -136 0
308 -138 136 0
-308 138 136 0
-308 -138 -136 0
-309 304 0
-309 136 0
-309 135 -138 0
-309 -135 138 0
309 -304 135 138 -136 0
309 -304 -135 -138 -136 0
310 307 -133 0
310 -307 133 0
-310 307 133 0
-310 -307 -133 0
311 136 -134 0
311 -136 134 0
-311 136 134 0
-311 -136 -134 0
-312 307 0
-312 134 0
-312 133 -136 0
-312 -133 136 0
312 -307 133 136 -134 0
312 -307 -133 -136 -134 0
313 310 -131 0
313 -310 131 0
-313 310 131 0
-313 -310 -131 0
314 134 -132 0
314 -134 132 0
-314 134 132 0
-314 -134 -132 0
-315 310 0
-315 132 0
-315 131 -134 0
-315 -131 134 0
315 -310 131 134 -132 0
315 -310 -131 -134 -132 0
316 313 -129 0
316 -313 129 0
-316 313 129 0
-316 -313 -129 0
317 132 -130 0
317 -132 130 0
-317 132 130 0
-317 -132 -130 0
-318 313 0
-318 130 0
-318 129 -132 0
-318 -129 132 0
318 -313 129 132 -130 0
318 -313 -129 -132 -130 0
319 316 -127 0
319 -316 127 0
-319 316 127 0
-319 -316 -127 0
320 130 -128 0
320 -130 128 0
-320 130 128 0
-320 -130 -128 0
-321 316 0
-321 128 0
-321 127 -130 0
-321 -127 130 0
321 -316 127 130 -128 0
321 -316 -127 -130 -128 0
322 319 -125 0
322 -319 125 0
-322 319 125 0
-322 -319 -125 0
323 128 -126 0
323 -128 126 0
-323 128 126 0
-323 -128 -126 0
-324 319 0
-324 126 0
-324 125 -128 0
-324 -125 128 0
324 -319 125 128 -126 0
324 -319 -125 -128 -126 0
325 322 -123 0
325 -322 123 0
-325 322 123 0
-325 -322 -123 0
326 126 -124 0
326 -126 124 0
-326 126 124 0
-326 -126 -124 0
-327 322 0
-327 124 0
-327 123 -126 0
-327 -123 126 0
327 -322 123 126 -124 0
327 -322 -123 -126 -124 0
328 325 -121 0
328 -325 121 0
-328 325 121 0
-328 -325 -121 0
329 124 -122 0
329 -124 122 0
-329 124 122 0
-329 -124 -122 0
-330 325 0
-330 122 0
-330 121 -124 0
-330 -121 124 0
330 -325 121 124 -122 0
330 -325 -121 -124 -122 0
331 328 -119 0
331 -328 119 0
-331 328 119 0
-331 -328 -119 0
332 122 -120 0
332 -122 120 0
-332 122 120 0
-332 -122 -120 0
-333 328 0
-333 120 0
-333 119 -122 0
-333 -119 122 0
333 -328 119 122 -120 0
333 -328 -119 -122 -120 0
334 331 -117 0
334 -331 117 0
-334 331 117 0
-334 -331 -117 0
335 120 -118 0
335 -120 118 0
-335 120 118 0
-335 -120 -118 0
-336 331 0
-336 118 0
-336 117 -120 0
-336 -117 120 0
336 -331 117 120 -118 0
336 -331 -117 -120 -118 0
337 334 -115 0
337 -334 115 0
-337 334 115 0
-337 -334 -115 0
338 118 -116 0
338 -118 116 0
-338 118 116 0
-338 -118 -116 0
-339 334 0
-339 116 0
-339 115 -118 0
-339 -115 118 0
339 -334 115 118 -116 0
339 -334 -115 -118 -116 0
340 337 -113 0
340 -337 113 0
-340 337 113 0
-340 -337 -113 0
341 116 -114 0
341 -116 114 0
-341 116 114 0
-341 -116 -114 0
-342 337 0
-342 114 0
-342 113 -116 0
-342 -113 116 0
342 -337 113 116 -114 0
342 -337 -113 -116 -114 0
343 340 -111 0
343 -340 111 0
-343 340 111 0
-343 -340 -111 0
344 114 -112 0
344 -114 112 0
-344 114 112 0
-344 -114 -112 0
-345 340 0
-345 112 0
-345 111 -114 0
-345 -111 114 0
345 -340 111 114 -112 0
345 -340 -111 -114 -112 0
346 343 -109 0
346 -343 109 0
-346 343 109 0
-346 -343 -109 0
347 112 -110 0
347 -112 110 0
-347 112 110 0
-347 -112 -110 0
-348 343 0
-348 110 0
-348 109 -112 0
-348 -109 112 0
348 -343 109 112 -110 0
348 -343 -109 -112 -110 0
349 346 -107 0
349 -346 107 0
-349 346 107 0
-349 -346 -107 0
350 110 -108 0
350 -110 108 0
-350 110 108 0
-350 -110 -108 0
-351 346 0
-351 108 0
-351 107 -110 0
-351 -107 110 0
351 -346 107 110 -108 0
351 -346 -107 -110 -108 0
352 349 -105 0
352 -349 105 0
-352 349 105 0
-352 -349 -105 0
353 108 -106 0
353 -108 106 0
-353 108 106 0
-353 -108 -106 0
-354 349 0
-354 106 0
-354 105 -108 0
-354 -105 108 0
354 -349 105 108 -106 0
354 -349 -105 -108 -106 0
355 352 -103 0
355 -352 103 0
-355 352 103 0
-355 -352 -103 0
356 106 -104 0
356 -106 104 0
-356 106 104 0
-356 -106 -104 0
-357 352 0
-357 104 0
-357 103 -106 0
-357 -103 106 0
357 -352 103 106 -104 0
357 -352 -103 -106 -104 0
358 355 -101 0
358 -355 101 0
-358 355 101 0
-358 -355 -101 0
359 104 -102 0
359 -104 102 0
-359 104 102 0
-359 -104 -102 0
-360 355 0
-360 102 0
-360 101 -104 0
-360 -101 104 0
360 -355 101 104 -102 0
360 -355 -101 -104 -102 0
361 358 -99 0
361 -358 99 0
-361 358 99 0
-361 -358 -99 0
362 102 -100 0
362 -102 100 0
-362 102 100 0
-362 -102 -100 0
-363 358 0
-363 100 0
-363 99 -102 0
-363 -99 102 0
363 -358 99 102 -100 0
363 -358 -99 -102 -100 0
364 361 -97 0
364 -361 97 0
-364 361 97 0
-364 -361 -97 0
365 100 -98 0
365 -100 98 0
-365 100 98 0
-365 -100 -98 0
-366 361 0
-366 98 0
-366 97 -100 0
-366 -97 100 0
366 -361 97 100 -98 0
366 -361 -97 -100 -98 0
367 364 -95 0
367 -364 95 0
-367 364 95 0
-367 -364 -95 0
368 98 -96 0
368 -98 96 0
-368 98 96 0
-368 -98 -96 0
-369 364 0
-369 96 0
-369 95 -98 0
-369 -95 98 0
369 -364 95 98 -96 0
369 -364 -95 -98 -96 0
370 367 -93 0
370 -367 93 0
-370 367 93 0
-370 -367 -93 0
371 96 -94 0
371 -96 94 0
-371 96 94 0
-371 -96 -94 0
-372 367 0
-372 94 0
-372 93 -96 0
-372 -93 96 0
372 -367 93 96 -94 0
372 -367 -93 -96 -94 0
373 370 -91 0
373 -370 91 0
-373 370 91 0
-373 -370 -91 0
374 94 -92 0
374 -94 92 0
-374 94 92 0
-374 -94 -92 0
-375 370 0
-375 92 0
-375 91 -94 0
-375 -91 94 0
375 -370 91 94 -92 0
375 -370 -91 -94 -92 0
376 373 -89 0
376 -373 89 0
-376 373 89 0
-376 -373 -89 0
377 92 -90 0
377 -92 90 0
-377 92 90 0
-377 -92 -90 0
-378 373 0
-378 90 0
-378 89 -92 0
-378 -89 92 0
378 -373 89 92 -90 0
378 -373 -89 -92 -90 0
379 376 -87 0
379 -376 87 0
-379 376 87 0
-379 -376 -87 0
380 90 -88 0
380 -90 88 0
-380 90 88 0
-380 -90 -88 0
-381 376 0
-381 88 0
-381 87 -90 0
-381 -87 90 0
381 -376 87 90 -88 0
381 -376 -87 -90 -88 0
382 379 -85 0
382 -379 85 0
-382 379 85 0
-382 -379 -85 0
383 88 -86 0
383 -88 86 0
-383 88 86 0
-383 -88 -86 0
-384 379 0
-384 86 0
-384 85 -88 0
-384 -85 88 0
384 -379 85 88 -86 0
384 -379 -85 -88 -86 0
385 382 -83 0
385 -382 83 0
-385 382 83 0
-385 -382 -83 0
386 86 -84 0
386 -86 84 0
-386 86 84 0
-386 -86 -84 0
-387 382 0
-387 84 0
-387 83 -86 0
-387 -83 86 0
387 -382 83 86 -84 0
387 -382 -83 -86 -84 0
388 385 -81 0
388 -385 81 0
-388 385 81 0
-388 -385 -81 0
389 84 -82 0
389 -84 82 0
-389 84 82 0
-389 -84 -82 0
-390 385 0
-390 82 0
-390 81 -84 0
-390 -81 84 0
390 -385 81 84 -82 0
390 -385 -81 -84 -82 0
391 388 -79 0
391 -388 79 0
-391 388 79 0
-391 -388 -79 0
392 82 -80 0
392 -82 80 0
-392 82 80 0
-392 -82 -80 0
-393 388 0
-393 80 0
-393 79 -82 0
-393 -79 82 0
393 -388 79 82 -80 0
393 -388 -79 -82 -80 0
394 391 -77 0
394 -391 77 0
-394 391 77 0
-394 -391 -77 0
395 80 -78 0
395 -80 78 0
-395 80 78 0
-395 -80 -78 0
-396 391 0
-396 78 0
-396 77 -80 0
-396 -77 80 0
396 -391 77 80 -78 0
396 -391 -77 -80 -78 0
397 394 -75 0
397 -394 75 0
-397 394 75 0
-397 -394 -75 0
398 78 -76 0
398 -78 76 0
-398 78 76 0
-398 -78 -76 0
-399 394 0
-399 76 0
-399 75 -78 0
-399 -75 78 0
399 -394 75 78 -76 0
399 -394 -75 -78 -76 0
400 397 -73 0
400 -397 73 0
-400 397 73 0
-400 -397 -73 0
401 76 -74 0
401 -76 74 0
-401 76 74 0
-401 -76 -74 0
-402 397 0
-402 74 0
-402 73 -76 0
-402 -73 76 0
402 -397 73 76 -74 0
402 -397 -73 -76 -74 0
403 400 -71 0
403 -400 71 0
-403 400 71 0
-403 -400 -71 0
404 74 -72 0
404 -74 72 0
-404 74 72 0
-404 -74 -72 0
-405 400 0
-405 72 0
-405 71 -74 0
-405 -71 74 0
405 -400 71 74 -72 0
405 -400 -71 -74 -72 0
406 403 -69 0
406 -403 69 0
-406 403 69 0
-406 -403 -69 0
407 72 -70 0
407 -72 70 0
-407 72 70 0
-407 -72 -70 0
-408 403 0
-408 70 0
-408 69 -72 0
-408 -69 72 0
408 -403 69 72 -70 0
408 -403 -69 -72 -70 0
409 406 -67 0
409 -406 67 0
-409 406 67 0
-409 -406 -67 0
410 70 -68 0
410 -70 68 0
-410 70 68 0
-410 -70 -68 0
-411 406 0
-411 68 0
-411 67 -70 0
-411 -67 70 0
411 -406 67 70 -68 0
411 -406 -67 -70 -68 0
412 409 -65 0
412 -409 65 0
-412 409 65 0
-412 -409 -65 0
413 68 -66 0
413 -68 66 0
-413 68 66 0
-413 -68 -66 0
-414 409 0
-414 66 0
-414 65 -68 0
-414 -65 68 0
414 -409 65 68 -66 0
414 -409 -65 -68 -66 0
415 412 -63 0
415 -412 63 0
-415 412 63 0
-415 -412 -63 0
416 66 -64 0
416 -66 64 0
-416 66 64 0
-416 -66 -64 0
-417 412 0
-417 64 0
-417 63 -66 0
-417 -63 66 0
417 -412 63 66 -64 0
417 -412 -63 -66 -64 0
418 415 -61 0
418 -415 61 0
-418 415 61 0
-418 -415 -61 0
419 64 -62 0
419 -64 62 0
-419 64 62 0
-419 -64 -62 0
-420 415 0
-420 62 0
-420 61 -64 0
-420 -61 64 0
420 -415 61 64 -62 0
420 -415 -61 -64 -62 0
421 418 -59 0
421 -418 59 0
-421 418 59 0
-421 -418 -59 0
422 62 -60 0
422 -62 60 0
-422 62 60 0
-422 -62 -60 0
-423 418 0
-423 60 0
-423 59 -62 0
-423 -59 62 0
423 -418 59 62 -60 0
423 -418 -59 -62 -60 0
424 421 -57 0
424 -421 57 0
-424 421 57 0
-424 -421 -57 0
425 60 -58 0
425 -60 58 0
-425 60 58 0
-425 -60 -58 0
-426 421 0
-426 58 0
-426 57 -60 0
-426 -57 60 0
426 -421 57 60 -58 0
426 -421 -57 -60 -58 0
427 424 -55 0
427 -424 55 0
-427 424 55 0
-427 -424 -55 0
428 58 -56 0
428 -58 56 0
-428 58 56 0
-428 -58 -56 0
-429 424 0
-429 56 0
-429 55 -58 0
-429 -55 58 0
429 -424 55 58 -56 0
429 -424 -55 -58 -56 0
430 427 -53 0
430 -427 53 0
-430 427 53 0
-430 -427 -53 0
431 56 -54 0
431 -56 54 0
-431 56 54 0
-431 -56 -54 0
-432 427 0
-432 54 0
-432 53 -56 0
-432 -53 56 0
432 -427 53 56 -54 0
432 -427 -53 -56 -54 0
433 430 -51 0
433 -430 51 0
-433 430 51 0
-433 -430 -51 0
434 54 -52 0
434 -54 52 0
-434 54 52 0
-434 -54 -52 0
-435 430 0
-435 52 0
-435 51 -54 0
-435 -51 54 0
435 -430 51 54 -52 0
435 -430 -51 -54 -52 0
436 433 -49 0
436 -433 49 0
-436 433 49 0
-436 -433 -49 0
437 52 -50 0
437 -52 50 0
-437 52 50 0
-437 -52 -50 0
-438 433 0
-438 50 0
-438 49 -52 0
-438 -49 52 0
438 -433 49 52 -50 0
438 -433 -49 -52 -50 0
439 436 -47 0
439 -436 47 0
-439 436 47 0
-439 -436 -47 0
440 50 -48 0
440 -50 48 0
-440 50 48 0
-440 -50 -48 0
-441 436 0
-441 48 0
-441 47 -50 0
-441 -47 50 0
441 -436 47 50 -48 0
441 -436 -47 -50 -48 0
442 439 -45 0
442 -439 45 0
-442 439 45 0
-442 -439 -45 0
443 48 -46 0
443 -48 46 0
-443 48 46 0
-443 -48 -46 0
-444 439 0
-444 46 0
-444 45 -48 0
-444 -45 48 0
444 -439 45 48 -46 0
444 -439 -45 -48 -46 0
445 442 -43 0
445 -442 43 0
-445 442 43 0
-445 -442 -43 0
446 46 -44 0
446 -46 44 0
-446 46 44 0
-446 -46 -44 0
-447 442 0
-447 44 0
-447 43 -46 0
-447 -43 46 0
447 -442 43 46 -44 0
447 -442 -43 -46 -44 0
448 445 -41 0
448 -445 41 0
-448 445 41 0
-448 -445 -41 0
449 44 -42 0
449 -44 42 0
-449 44 42 0
-449 -44 -42 0
-450 445 0
-450 42 0
-450 41 -44 0
-450 -41 44 0
450 -445 41 44 -42 0
450 -445 -41 -44 -42 0
451 448 -39 0
451 -448 39 0
-451 448 39 0
-451 -448 -39 0
452 42 -40 0
452 -42 40 0
-452 42 40 0
-452 -42 -40 0
-453 448 0
-453 40 0
-453 39 -42 0
-453 -39 42 0
453 -448 39 42 -40 0
453 -448 -39 -42 -40 0
454 451 -37 0
454 -451 37 0
-454 451 37 0
-454 -451 -37 0
455 40 -38 0
455 -40 38 0
-455 40 38 0
-455 -40 -38 0
-456 451 0
-456 38 0
-456 37 -40 0
-456 -37 40 0
456 -451 37 40 -38 0
456 -451 -37 -40 -38 0
457 454 -35 0
457 -454 35 0
-457 454 35 0
-457 -454 -35 0
458 38 -36 0
458 -38 36 0
-458 38 36 0
-458 -38 -36 0
-459 454 0
-459 36 0
-459 35 -38 0
-459 -35 38 0
459 -454 35 38 -36 0
459 -454 -35 -38 -36 0
460 457 -33 0
460 -457 33 0
-460 457 33 0
-460 -457 -33 0
461 36 -34 0
461 -36 34 0
-461 36 34 0
-461 -36 -34 0
-462 457 0
-462 34 0
-462 33 -36 0
-462 -33 36 0
462 -457 33 36 -34 0
462 -457 -33 -36 -34 0
463 460 -31 0
463 -460 31 0
-463 460 31 0
-463 -460 -31 0
464 34 -32 0
464 -34 32 0
-464 34 32 0
-464 -34 -32 0
-465 460 0
-465 32 0
-465 31 -34 0
-465 -31 34 0
465 -460 31 34 -32 0
465 -460 -31 -34 -32 0
466 463 -29 0
466 -463 29 0
-466 463 29 0
-466 -463 -29 0
467 32 -30 0
467 -32 30 0
-467 32 30 0
-467 -32 -30 0
-468 463 0
-468 30 0
-468 29 -32 0
-468 -29 32 0
468 -463 29 32 -30 0
468 -463 -29 -32 -30 0
469 466 -27 0
469 -466 27 0
-469 466 27 0
-469 -466 -27 0
470 30 -28 0
470 -30 28 0
-470 30 28 0
-470 -30 -28 0
-471 466 0
-471 28 0
-471 27 -30 0
-471 -27 30 0
471 -466 27 30 -28 0
471 -466 -27 -30 -28 0
472 469 -25 0
472 -469 25 0
-472 469 25 0
-472 -469 -25 0
473 28 -26 0
473 -28 26 0
-473 28 26 0
-473 -28 -26 0
-474 469 0
-474 26 0
-474 25 -28 0
-474 -25 28 0
474 -469 25 28 -26 0
474 -469 -25 -28 -26 0
475 472 -23 0
475 -472 23 0
-475 472 23 0
-475 -472 -23 0
476 26 -24 0
476 -26 24 0
-476 26 24 0
-476 -26 -24 0
-477 472 0
-477 24 0
-477 23 -26 0
-477 -23 26 0
477 -472 23 26 -24 0
477 -472 -23 -26 -24 0
478 475 -21 0
478 -475 21 0
-478 475 21 0
-478 -475 -21 0
479 24 -22 0
479 -24 22 0
-479 24 22 0
-479 -24 -22 0
-480 475 0
-480 22 0
-480 21 -24 0
-480 -21 24 0
480 -475 21 24 -22 0
480 -475 -21 -24 -22 0
481 478 -19 0
481 -478 19 0
-481 478 19 0
-481 -478 -19 0
482 22 -20 0
482 -22 20 0
-482 22 20 0
-482 -22 -20 0
-483 478 0
-483 20 0
-483 19 -22 0
-483 -19 22 0
483 -478 19 22 -20 0
483 -478 -19 -22 -20 0
484 481 -17 0
484 -481 17 0
-484 481 17 0
-484 -481 -17 0
485 20 -18 0
485 -20 18 0
-485 20 18 0
-485 -20 -18 0
-486 481 0
-486 18 0
-486 17 -20 0
-486 -17 20 0
486 -481 17 20 -18 0
486 -481 -17 -20 -18 0
487 484 -15 0
487 -484 15 0
-487 484 15 0
-487 -484 -15 0
488 18 -16 0
488 -18 16 0
-488 18 16 0
-488 -18 -16 0
-489 484 0
-489 16 0
-489 15 -18 0
-489 -15 18 0
489 -484 15 18 -16 0
489 -484 -15 -18 -16 0
490 487 -13 0
490 -487 13 0
-490 487 13 0
-490 -487 -13 0
491 16 -14 0
491 -16 14 0
-491 16 14 0
-491 -16 -14 0
-492 487 0
-492 14 0
-492 13 -16 0
-492 -13 16 0
492 -487 13 16 -14 0
492 -487 -13 -16 -14 0
493 490 -11 0
493 -490 11 0
-493 490 11 0
-493 -490 -11 0
494 14 -12 0
494 -14 12 0
-494 14 12 0
-494 -14 -12 0
-495 490 0
-495 12 0
-495 11 -14 0
-495 -11 14 0
495 -490 11 14 -12 0
495 -490 -11 -14 -12 0
496 493 -9 0
496 -493 9 0
-496 493 9 0
-496 -493 -9 0
497 12 -10 0
497 -12 10 0
-497 12 10 0
-497 -12 -10 0
-498 493 0
-498 10 0
-498 9 -12 0
-498 -9 12 0
498 -493 9 12 -10 0
498 -493 -9 -12 -10 0
499 496 -7 0
499 -496 7 0
-499 496 7 0
-499 -496 -7 0
500 10 -8 0
500 -10 8 0
-500 10 8 0
-500 -10 -8 0
-501 496 0
-501 8 0
-501 7 -10 0
-501 -7 10 0
501 -496 7 10 -8 0
501 -496 -7 -10 -8 0
502 499 -5 0
502 -499 5 0
-502 499 5 0
-502 -499 -5 0
503 8 -6 0
503 -8 6 0
-503 8 6 0
-503 -8 -6 0
-504 499 0
-504 6 0
-504 5 -8 0
-504 -5 8 0
504 -499 5 8 -6 0
504 -499 -5 -8 -6 0
505 502 -3 0
505 -502 3 0
-505 502 3 0
-505 -502 -3 0
506 6 -4 0
506 -6 4 0
-506 6 4 0
-506 -6 -4 0
-507 502 0
-507 4 0
-507 3 -6 0
-507 -3 6 0
507 -502 3 6 -4 0
507 -502 -3 -6 -4 0
508 505 -1 0
508 -505 1 0
-508 505 1 0
-508 -505 -1 0
509 4 -2 0
509 -4 2 0
-509 4 2 0
-509 -4 -2 0
-510 505 0
-510 2 0
-510 1 -4 0
-510 -1 4 0
510 -505 1 4 -2 0
510 -505 -1 -4 -2 0
-508 0
-505 0
-509 0
-502 0
-506 0
-499 0
-503 0
-496 0
-500 0
-493 0
-497 0
-490 0
-494 0
-487 0
-491 0
-484 0
-488 0
-481 0
-485 0
-478 0
-482 0
-475 0
-479 0
-472 0
-476 0
-469 0
-473 0
-466 0
-470 0
-463 0
-467 0
-460 0
-464 0
-457 0
-461 0
-454 0
-458 0
-451 0
-455 0
-448 0
-452 0
-445 0
-449 0
-442 0
-446 0
-439 0
-443 0
-436 0
-440 0
-433 0
-437 0
-430 0
-434 0
-427 0
-431 0
-424 0
-428 0
-421 0
-425 0
-418 0
-422 0
-415 0
-419 0
-412 0
-416 0
-409 0
-413 0
-406 0
-410 0
-403 0
-407 0
-400 0
-404 0
-397 0
-401 0
-394 0
-398 0
-391 0
-395 0
-388 0
-392 0
-385 0
-389 0
-382 0
-386 0
-379 0
-383 0
-376 0
-380 0
-373 0
-377 0
-370 0
-374 0
-367 0
-371 0
-364 0
-368 0
-361 0
-365 0
-358 0
-362 0
-355 0
-359 0
-352 0
-356 0
-349 0
-353 0
-346 0
-350 0
-343 0
-347 0
-340 0
-344 0
-337 0
-341 0
-334 0
-338 0
-331 0
-335 0
-328 0
-332 0
-325 0
-329 0
-322 0
-326 0
-319 0
-323 0
-316 0
-320 0
-313 0
-317 0
-310 0
-314 0
-307 0
-311 0
-304 0
-308 0
-301 0
-305 0
-298 0
-302 0
-295 0
-299 0
-292 0
-296 0
-289 0
-293 0
-286 0
-290 0
-283 0
-287 0
-280 0
-284 0
-277 0
-281 0
-274 0
-278 0
-271 0
-275 0
-268 0
-272 0
-265 0
-269 0
-262 0
-266 0
-259 0
-263 0
-256 0
-260 0
-253 0
-257 0
-250 0
-254 0
-247 0
-251 0
-244 0
-248 0
-241 0
-245 0
-238 0
-242 0
-235 0
-239 0
-232 0
-236 0
-229 0
-233 0
-226 0
-230 0
-223 0
-227 0
-220 0
-224 0
-217 0
-221 0
-214 0
-218 0
-211 0
-215 0
-205 0
-212 0
